65
1 0 9
2 1 6
3 2 4
4 0 3
4 3 5
5 0 6
5 2 7
5 3 10
5 4 2
6 0 10
6 1 8
6 2 9
6 3 1
6 4 3
7 0 7
7 3 6
7 5 5
8 3 5
8 6 10
9 1 9
9 2 1
9 3 5
9 6 8
9 7 9
10 0 10
10 1 7
10 3 5
10 6 2
10 7 6
10 8 8
10 9 5
11 0 5
11 1 8
11 3 7
11 6 3
11 7 2
11 9 2
12 0 9
12 5 7
12 7 5
12 8 4
12 9 10
12 11 6
13 2 10
13 3 6
13 5 8
13 11 2
13 12 7
14 0 4
14 1 5
14 3 1
14 4 1
14 6 10
14 7 2
14 8 3
14 9 5
14 11 1
14 13 7
15 0 2
15 1 1
15 2 8
15 3 7
15 5 2
15 6 6
15 7 2
15 9 1
15 11 7
15 12 3
15 13 4
15 14 7
16 0 7
16 1 6
16 2 10
16 4 9
16 6 6
16 9 2
16 10 10
16 11 8
16 14 4
16 15 10
17 0 6
17 1 2
17 2 2
17 3 6
17 6 4
17 8 10
17 9 9
17 11 2
17 14 4
17 15 6
17 16 10
18 4 2
18 5 4
18 7 1
18 8 1
18 11 1
18 13 7
18 14 2
18 17 9
19 0 9
19 1 5
19 2 2
19 6 3
19 7 3
19 10 10
19 12 8
19 13 1
19 15 7
19 16 7
19 18 10
20 0 4
20 2 7
20 3 9
20 5 4
20 11 1
20 12 1
20 13 7
20 14 1
20 15 2
20 17 8
20 18 4
21 4 10
21 5 5
21 6 10
21 8 6
21 9 5
21 12 1
21 14 7
21 15 7
22 1 7
22 2 4
22 7 5
22 8 7
22 9 9
22 10 10
22 12 7
22 13 6
22 14 5
22 17 8
22 18 9
22 21 4
23 0 9
23 1 5
23 2 1
23 5 6
23 7 4
23 8 8
23 11 5
23 13 10
23 16 2
23 17 8
24 1 10
24 2 1
24 5 2
24 9 2
24 11 5
24 12 5
24 13 7
24 15 7
24 16 9
24 17 5
24 18 6
24 20 7
24 22 7
25 1 10
25 3 5
25 4 7
25 5 9
25 6 6
25 7 6
25 9 8
25 13 10
25 16 8
25 18 2
25 19 4
25 20 7
25 21 3
26 0 10
26 1 8
26 2 2
26 6 7
26 7 4
26 10 8
26 12 9
26 15 1
26 17 7
26 19 10
26 21 7
26 22 1
26 24 3
27 1 1
27 2 5
27 3 5
27 4 8
27 5 10
27 6 3
27 8 1
27 10 9
27 12 10
27 13 1
27 14 4
27 16 9
27 17 6
27 18 2
27 22 7
28 1 5
28 5 4
28 12 3
28 16 6
28 19 7
28 21 2
28 26 9
29 0 3
29 1 5
29 4 1
29 5 4
29 6 10
29 7 3
29 8 7
29 11 1
29 12 3
29 13 7
29 16 3
29 17 9
29 18 8
29 19 6
29 20 2
29 22 5
29 23 2
29 24 6
29 26 9
29 27 8
29 28 7
30 9 3
30 11 10
30 13 7
30 14 3
30 17 10
30 18 1
30 19 6
30 23 3
30 26 10
30 28 2
31 0 6
31 1 9
31 3 1
31 4 9
31 9 7
31 11 1
31 12 2
31 13 10
31 14 7
31 16 6
31 18 6
31 21 8
31 22 6
31 23 1
31 25 5
31 26 4
32 0 6
32 4 2
32 7 10
32 8 6
32 9 8
32 10 4
32 11 6
32 12 2
32 13 10
32 16 8
32 18 10
32 19 9
32 22 1
32 24 3
32 26 2
32 27 3
32 28 3
32 30 10
33 1 5
33 3 3
33 6 4
33 11 3
33 12 10
33 13 4
33 14 10
33 15 6
33 21 9
33 23 8
33 25 5
33 26 3
33 27 10
33 28 1
33 29 7
33 31 1
34 2 1
34 3 7
34 7 9
34 8 2
34 9 9
34 13 2
34 15 4
34 16 9
34 18 10
34 20 1
34 21 4
34 22 6
34 23 4
34 25 5
34 31 7
34 32 8
35 4 3
35 6 6
35 8 10
35 10 2
35 16 2
35 18 3
35 20 10
35 22 7
35 24 4
35 27 6
35 29 5
35 32 9
35 34 9
36 1 10
36 3 7
36 4 1
36 8 10
36 10 9
36 14 7
36 16 1
36 17 4
36 18 7
36 19 10
36 21 9
36 22 2
36 27 3
36 28 10
36 31 4
36 32 2
36 34 2
36 35 4
37 1 10
37 3 3
37 8 1
37 9 5
37 10 10
37 11 7
37 12 2
37 13 9
37 17 8
37 21 8
37 23 3
37 24 8
37 27 6
37 28 1
37 29 2
37 31 3
37 32 2
37 33 1
38 0 1
38 3 5
38 6 2
38 7 2
38 11 10
38 12 3
38 14 2
38 15 6
38 19 9
38 22 6
38 26 10
38 27 1
38 28 7
38 29 8
38 31 9
38 37 8
39 0 3
39 2 5
39 3 8
39 4 4
39 5 7
39 7 6
39 8 4
39 10 2
39 11 8
39 12 3
39 14 4
39 15 3
39 17 7
39 18 10
39 19 7
39 20 5
39 21 7
39 23 6
39 24 3
39 26 2
39 28 3
39 33 6
39 35 2
40 0 9
40 1 6
40 2 5
40 3 4
40 4 8
40 5 2
40 8 1
40 9 9
40 13 9
40 14 9
40 15 10
40 21 4
40 23 6
40 24 3
40 25 10
40 26 4
40 27 9
40 30 9
40 32 7
40 34 8
40 38 2
40 39 3
41 2 2
41 6 7
41 7 8
41 10 5
41 11 3
41 16 3
41 17 9
41 18 2
41 22 10
41 24 2
41 25 8
41 27 9
41 28 10
41 29 5
41 30 9
41 33 8
41 34 9
41 38 8
41 39 6
42 2 5
42 3 1
42 4 7
42 5 2
42 6 2
42 7 1
42 8 2
42 9 3
42 12 9
42 16 4
42 19 7
42 23 2
42 24 9
42 25 2
42 27 9
42 28 2
42 29 9
42 30 4
42 33 8
42 35 6
42 36 3
42 38 3
42 39 6
42 40 8
42 41 1
43 2 4
43 7 1
43 9 7
43 10 2
43 11 8
43 15 5
43 16 8
43 17 2
43 20 1
43 21 6
43 23 4
43 24 9
43 25 6
43 26 4
43 29 7
43 30 7
43 32 7
43 33 1
43 38 10
43 39 5
43 41 6
43 42 5
44 1 1
44 11 8
44 12 7
44 13 8
44 14 7
44 17 7
44 18 10
44 19 1
44 20 1
44 22 6
44 25 10
44 28 8
44 29 10
44 30 5
44 32 7
44 35 3
44 36 3
44 38 4
44 42 7
45 0 2
45 1 10
45 2 4
45 3 3
45 4 4
45 5 8
45 6 9
45 7 8
45 8 6
45 12 2
45 13 6
45 14 3
45 17 6
45 18 4
45 20 4
45 24 5
45 27 1
45 28 6
45 34 10
45 35 9
45 38 2
45 39 3
45 40 6
45 42 5
46 2 5
46 5 9
46 10 3
46 11 5
46 12 2
46 13 5
46 14 6
46 15 9
46 16 4
46 17 7
46 19 1
46 20 1
46 21 7
46 23 4
46 25 7
46 26 7
46 28 5
46 29 7
46 31 9
46 32 7
46 35 9
46 36 4
46 41 8
46 42 7
46 44 10
46 45 7
47 2 7
47 4 10
47 8 4
47 9 9
47 10 4
47 11 4
47 13 3
47 18 2
47 19 5
47 20 1
47 21 10
47 22 10
47 23 3
47 24 7
47 25 4
47 26 10
47 28 5
47 29 2
47 30 5
47 33 1
47 34 9
47 36 3
47 37 2
47 38 9
47 39 5
47 40 3
47 42 3
47 44 9
48 1 6
48 2 9
48 3 3
48 5 9
48 6 5
48 11 6
48 14 10
48 18 7
48 19 6
48 20 10
48 21 8
48 22 6
48 26 10
48 27 10
48 29 4
48 31 10
48 34 1
48 36 9
48 37 3
48 42 2
48 44 1
49 1 1
49 8 9
49 9 3
49 10 5
49 12 6
49 13 3
49 14 4
49 18 8
49 19 5
49 20 6
49 21 2
49 24 4
49 25 6
49 26 9
49 28 3
49 31 6
49 36 5
49 39 8
49 41 9
49 42 9
49 43 10
49 45 9
49 47 1
49 48 7
50 0 8
50 1 1
50 3 4
50 4 9
50 6 9
50 7 10
50 8 2
50 9 9
50 10 6
50 11 6
50 14 9
50 15 6
50 17 5
50 19 4
50 23 3
50 24 6
50 25 10
50 27 5
50 28 6
50 30 9
50 32 9
50 34 1
50 35 8
50 38 10
50 39 8
50 42 5
50 44 9
51 0 8
51 3 7
51 7 9
51 10 8
51 12 6
51 14 8
51 15 9
51 16 4
51 21 7
51 22 6
51 23 7
51 26 10
51 27 7
51 28 4
51 32 1
51 33 9
51 34 4
51 36 6
51 39 5
51 40 5
51 41 1
51 43 10
51 44 2
51 49 1
52 2 4
52 3 3
52 12 8
52 14 1
52 16 8
52 17 4
52 19 2
52 20 4
52 22 2
52 27 10
52 29 2
52 30 3
52 32 6
52 35 8
52 36 2
52 40 1
52 42 9
52 43 6
52 47 9
52 49 5
52 50 2
53 0 8
53 1 6
53 2 7
53 4 2
53 5 9
53 7 6
53 8 9
53 9 9
53 10 10
53 12 3
53 13 6
53 14 7
53 16 3
53 17 9
53 18 10
53 19 10
53 21 2
53 25 8
53 28 1
53 33 9
53 34 5
53 37 3
53 38 8
53 39 3
53 40 8
53 41 10
53 42 8
53 43 3
53 47 9
53 49 9
54 0 6
54 1 6
54 3 5
54 7 2
54 8 2
54 13 8
54 14 1
54 17 7
54 18 7
54 20 3
54 21 4
54 25 6
54 26 6
54 27 1
54 28 5
54 32 9
54 33 9
54 35 3
54 36 3
54 39 7
54 40 1
54 41 2
54 42 5
54 43 10
54 48 3
55 0 3
55 1 4
55 4 6
55 8 10
55 9 4
55 13 2
55 14 9
55 15 5
55 22 10
55 23 6
55 24 2
55 25 2
55 27 1
55 29 1
55 30 5
55 33 2
55 34 8
55 36 3
55 37 7
55 39 8
55 40 7
55 42 1
55 43 1
55 45 1
55 46 4
55 48 4
55 50 3
55 51 7
55 52 8
56 0 6
56 1 1
56 2 4
56 3 10
56 4 9
56 6 2
56 9 1
56 10 1
56 11 8
56 12 6
56 13 3
56 15 4
56 19 3
56 23 6
56 24 8
56 25 1
56 26 5
56 27 10
56 30 6
56 31 5
56 38 3
56 39 1
56 40 5
56 43 1
56 44 7
56 45 4
56 47 7
56 48 5
56 53 1
56 55 9
57 4 9
57 8 8
57 9 4
57 11 4
57 12 10
57 14 1
57 18 6
57 20 8
57 21 6
57 22 9
57 24 6
57 26 6
57 28 6
57 30 9
57 32 3
57 34 2
57 35 4
57 37 10
57 41 4
57 42 1
57 43 10
57 46 1
57 48 10
57 50 3
57 51 1
57 56 3
58 0 8
58 2 8
58 4 5
58 6 5
58 7 7
58 10 4
58 11 7
58 13 6
58 14 2
58 15 8
58 19 7
58 25 4
58 27 4
58 28 3
58 32 7
58 33 5
58 34 6
58 37 2
58 38 1
58 39 7
58 40 9
58 43 3
58 44 10
58 46 1
58 47 7
58 50 4
58 53 10
58 57 6
59 0 2
59 2 6
59 3 5
59 4 10
59 7 8
59 19 10
59 20 9
59 21 4
59 22 1
59 23 7
59 24 10
59 25 10
59 26 3
59 33 7
59 34 5
59 35 5
59 36 8
59 38 6
59 42 4
59 43 3
59 44 2
59 45 1
59 46 4
59 47 8
59 49 7
59 51 4
59 52 1
59 55 8
59 58 5
60 0 8
60 1 1
60 3 8
60 4 1
60 5 2
60 13 8
60 16 4
60 18 1
60 19 7
60 21 10
60 23 8
60 24 10
60 27 6
60 33 9
60 36 10
60 40 9
60 42 3
60 43 10
60 45 9
60 48 7
60 49 2
60 50 7
60 56 2
60 57 3
60 58 5
60 59 2
61 0 2
61 1 10
61 5 10
61 9 9
61 12 6
61 13 7
61 14 6
61 15 8
61 16 4
61 17 9
61 18 1
61 21 8
61 22 8
61 25 5
61 26 7
61 27 7
61 28 3
61 30 7
61 32 9
61 35 4
61 40 8
61 41 3
61 42 7
61 43 4
61 45 8
61 46 9
61 51 6
61 52 2
61 53 9
61 58 8
61 59 9
61 60 9
62 0 8
62 2 4
62 3 2
62 4 8
62 5 6
62 8 7
62 12 9
62 13 1
62 14 7
62 15 2
62 16 6
62 17 5
62 18 10
62 19 8
62 21 5
62 23 6
62 26 4
62 31 9
62 33 3
62 34 1
62 35 9
62 37 5
62 38 1
62 43 9
62 44 9
62 45 7
62 47 5
62 50 9
62 51 10
62 52 3
62 54 1
62 55 2
62 56 2
62 58 8
62 60 10
62 61 8
63 0 8
63 1 4
63 2 7
63 4 3
63 7 5
63 8 1
63 9 4
63 10 9
63 11 7
63 12 1
63 13 10
63 14 8
63 15 5
63 18 9
63 21 1
63 22 1
63 25 1
63 26 6
63 27 3
63 28 1
63 29 2
63 31 1
63 33 9
63 34 2
63 39 7
63 40 8
63 42 8
63 44 8
63 45 8
63 46 6
63 47 4
63 48 4
63 49 9
63 50 7
63 51 8
63 52 4
63 53 5
63 54 5
63 55 3
63 58 9
63 60 5
63 61 5
64 1 7
64 2 1
64 7 6
64 8 4
64 9 4
64 11 7
64 13 8
64 15 8
64 19 9
64 21 9
64 22 6
64 23 5
64 24 7
64 27 6
64 29 9
64 33 9
64 36 8
64 37 2
64 38 2
64 39 2
64 40 4
64 41 10
64 47 5
64 49 1
64 53 4
64 59 1
64 60 6
64 61 8
